73
120
96	5
95	6
94	5
93	6
92	4
91	6
90	1
89	6
88	9
87	5
86	6
85	5
84	10
83	8
82	8
81	7
80	3
79	3
78	5
77	3
76	8
75	4
74	2
73	7
72	5
71	4
70	1
69	8
68	7
67	4
66	6
65	3
64	7
63	7
62	9
61	7
60	7
59	5
58	6
57	5
56	4
55	4
54	2
53	4
52	4
51	2
50	9
49	7
48	4
47	5
46	12
45	7
44	3
43	4
42	7
41	3
40	7
39	8
38	4
37	5
36	6
35	8
34	11
33	10
32	3
31	5
30	1
29	6
28	2
27	4
26	9
25	4
24	3
